problems/csplib-prob015/SchursLemma-models/noch/O2/lingeling/model_1_4-6-15-solution000001.eprime-solution
language ESSENCE' 1.0

letting boxes_PartitionOccurrence_FirstIndex be [1, 2, 5, 10, 14, 15; int(1..6)]
letting boxes_PartitionOccurrence_NumParts be 6
letting boxes_PartitionOccurrence_PartSizes be [3, 4, 4, 2, 1, 1; int(1..6)]
letting boxes_PartitionOccurrence_WhichPart be [1, 2, 2, 1, 3, 2, 1, 3, 3, 4, 4, 3, 2, 5, 6; int(1..15)]
