problems/csplib-prob015/SchursLemma-models/noch/O2/lingeling/model_1_4-6-15-solution000001.solution
language Essence 1.3

letting boxes be partition({1, 4, 7}, {2, 3, 6, 13}, {5, 8, 9, 12}, {10, 11}, {14}, {15})
